20
2 0 265
2 1 304
3 1 188
3 2 199
4 1 320
4 2 192
5 2 260
6 0 267
6 4 22
7 1 275
7 4 201
7 5 70
8 1 107
8 3 41
9 0 312
9 1 188
9 2 168
9 8 275
10 0 231
10 3 309
10 6 194
10 8 218
10 9 78
11 7 135
11 9 111
11 10 128
12 2 260
12 6 57
12 9 26
12 11 281
13 1 218
13 3 289
13 6 220
13 8 1
14 4 170
14 7 143
14 10 1
14 11 153
14 12 189
14 13 166
15 2 244
15 3 235
15 4 203
15 11 27
15 14 220
16 0 41
16 2 202
16 3 318
16 5 249
16 7 56
16 9 137
16 10 203
16 12 196
16 14 286
16 15 264
17 1 14
17 2 301
17 4 106
17 5 275
17 8 277
17 13 225
17 15 189
17 16 185
18 1 196
18 6 151
18 8 208
18 9 33
18 14 318
18 17 305
19 0 95
19 3 70
19 5 109
19 6 235
19 7 185
19 9 281
19 11 38
19 12 45
19 14 245
19 15 8
